27	3	3
5	7	7	89	100	66	
0	0	0	0	6	10	1	1	5	4	25	2	3	4	5	6	7	8	9	10	11	12	13	14	15	16	17	18	19	20	21	22	23	24	25	26
2	1	2	1	10	6	7	8	10	5	1	27
3	4	2	1	6	6	2	2	1	3	1	20
2	3	2	2	1	1	5	4	6	7	1	27
5	1	2	2	7	4	5	3	8	1	1	11
2	3	1	1	8	4	1	9	4	5	1	27
3	2	1	1	2	4	10	8	1	10	1	14
4	2	1	1	3	6	5	4	8	6	1	27
3	2	1	2	7	8	6	2	2	2	1	24
5	1	2	2	8	8	5	3	10	3	1	27
4	2	2	1	3	8	6	4	6	10	1	27
6	2	2	1	8	7	3	8	5	4	1	27
4	3	2	2	8	7	10	3	1	7	1	27
4	3	2	1	9	7	4	4	8	6	1	27
2	3	2	2	6	5	3	10	7	3	1	16
5	3	2	2	3	10	10	9	3	5	1	27
3	4	2	1	8	1	2	1	9	7	1	27
4	3	1	2	4	7	4	3	10	4	1	23
2	2	2	2	9	8	10	3	2	7	1	27
5	2	1	2	8	7	2	1	6	9	1	27
3	1	2	1	3	9	8	2	7	1	1	22
5	5	1	1	7	5	1	9	5	10	1	24
3	4	1	2	5	9	6	8	2	5	1	27
2	3	1	1	1	1	3	1	3	4	1	27
1	2	1	2	8	1	10	10	1	6	1	27
2	5	1	1	8	3	4	6	5	10	1	27
0	0	0	0	6	1	4	7	10	9	0
